/* Objective function */
max: +420 * X1+X2+X3  + 360 * Y1+Y2+Y3 + 300 * Z1+Z2+Z3;

/* Constraint */
X1+Y1+Z1 <=750;
X2+Y2+Z2 <=900;
X3+Y3+Z3 <=450; 
20X1+15Y1+12Z1<=13000;
20X2+15Y2+12Z2<=12000;
20X3+15Y3+12Z3<=5000;
X1+X2+X3 <=900;
Y1+Y2+Y3 <= 1200;
Z1+Z2+Z3 <=7500;    

